
  22   10
  10   10   10   10   10   10   10   10   10   10

   0   0   0   0   0   0   0   0   0   0   0   3 2 3 5 
   9   0   0   0   0   0   0  10   0   0   0   1 4 
   9   0  10   0   0   0   0   0   0   0   0   1 4 
   7   0   0   0  10   0   0   0   0   0   0   3 9 8 6 
   1   0   0   0   0   0   0   0   0  10   0   3 9 8 6 
   3   0  10   0   0   0   0   0   0   0   0   3 13 10 7 
   7   0   0   0   0   0   0   0  10   0   0   2 12 11 
   7   0   0   0   0   0   0   0  10   0   0   2 15 11 
   6   0   0  10   0   0   0   0   0   0   0   2 14 11 
   7   0  10   0   0   0   0   0   0   0   0   1 11 
   7   0   0   0   0   0   0   0   0   0  10   2 19 16 
   9   0   0   0   0   0   0  10   0   0   0   1 14 
   3   0   0  10   0   0   0   0   0   0   0   1 14 
   3   0   0   0   0   0  10   0   0   0   0   1 16 
   3   0   0   0   0  10   0   0   0   0   0   1 16 
   7  10   0   0   0   0   0   0   0   0   0   1 17 
   8   0   0   0   0   0  10   0   0   0   0   2 20 18 
  10   0   0   0   0   0   0   0   0  10   0   1 21 
  10   0   0   0   0   0   0   0  10   0   0   1 20 
   9  10   0   0   0   0   0   0   0   0   0   1 22
   3   0  10   0   0   0   0   0   0   0   0   1 22
   0   0   0   0   0   0   0   0   0   0   0   0 
